NAME 
ROWS
 N  OBJ
 L  R0      
 E  R1      
 E  R2      
 E  R3      
 E  R4      
 E  R5      
 E  R6      
 E  R7      
 E  R8      
 E  R9      
 E  R10     
 E  R11     
 E  R12     
 E  R13     
 E  R14     
 E  R15     
 E  R16     
 E  R17     
 E  R18     
 E  R19     
 E  R20     
 E  R21     
 E  R22     
 E  R23     
 E  R24     
 E  R25     
COLUMNS
    MARKER    'MARKER'                 'INTORG'
    I0(13)    OBJ       75
    I0(13)    R0        147
    I0(13)    R2        9
    I0(13)    R3        13
    I0(13)    R4        17
    I0(13)    R5        10
    I0(13)    R6        14
    I0(13)    R7        16
    I0(13)    R8        18
    I0(13)    R9        14
    I0(13)    R10       17
    I0(13)    R11       10
    I0(13)    R12       5
    I0(13)    R25       1
    I1(13)    OBJ       131
    I1(13)    R0        -190
    I1(13)    R1        19
    I1(13)    R2        19
    I1(13)    R4        14
    I1(13)    R5        8
    I1(13)    R6        19
    I1(13)    R7        14
    I1(13)    R8        11
    I1(13)    R9        3
    I1(13)    R10       8
    I1(13)    R11       6
    I1(13)    R12       12
    I1(13)    R25       1
    I2(13)    OBJ       -7
    I2(13)    R0        -8
    I2(13)    R1        11
    I2(13)    R2        8
    I2(13)    R3        18
    I2(13)    R4        14
    I2(13)    R5        10
    I2(13)    R6        8
    I2(13)    R8        7
    I2(13)    R9        5
    I2(13)    R10       5
    I2(13)    R11       2
    I2(13)    R12       12
    I2(13)    R25       1
    I3(14)    OBJ       181
    I3(14)    R0        -56
    I3(14)    R1        18
    I3(14)    R2        7
    I3(14)    R3        11
    I3(14)    R4        6
    I3(14)    R5        3
    I3(14)    R6        7
    I3(14)    R7        19
    I3(14)    R8        7
    I3(14)    R9        12
    I3(14)    R10       5
    I3(14)    R11       12
    I3(14)    R12       13
    I3(14)    R25       1
    I4(12)    OBJ       166
    I4(12)    R0        -70
    I4(12)    R2        4
    I4(12)    R3        10
    I4(12)    R4        8
    I4(12)    R5        1
    I4(12)    R6        15
    I4(12)    R7        8
    I4(12)    R8        17
    I4(12)    R10       18
    I4(12)    R11       17
    I4(12)    R12       10
    I4(12)    R25       1
    I5(12)    OBJ       -31
    I5(12)    R0        140
    I5(12)    R1        18
    I5(12)    R2        8
    I5(12)    R3        17
    I5(12)    R4        4
    I5(12)    R5        -1
    I5(12)    R6        3
    I5(12)    R7        14
    I5(12)    R8        9
    I5(12)    R9        1
    I5(12)    R11       17
    I5(12)    R25       1
    I6(13)    OBJ       199
    I6(13)    R0        65
    I6(13)    R1        10
    I6(13)    R2        7
    I6(13)    R3        5
    I6(13)    R5        18
    I6(13)    R6        14
    I6(13)    R7        19
    I6(13)    R8        9
    I6(13)    R9        19
    I6(13)    R10       19
    I6(13)    R11       17
    I6(13)    R12       13
    I6(13)    R25       1
    I7(12)    OBJ       -53
    I7(12)    R0        100
    I7(12)    R1        13
    I7(12)    R2        13
    I7(12)    R3        11
    I7(12)    R5        19
    I7(12)    R6        16
    I7(12)    R7        9
    I7(12)    R8        12
    I7(12)    R10       18
    I7(12)    R11       7
    I7(12)    R12       14
    I7(12)    R25       1
    I8(11)    OBJ       -48
    I8(11)    R0        -65
    I8(11)    R2        3
    I8(11)    R4        -1
    I8(11)    R5        15
    I8(11)    R6        15
    I8(11)    R7        -1
    I8(11)    R8        13
    I8(11)    R9        4
    I8(11)    R11       -1
    I8(11)    R12       18
    I8(11)    R25       1
    I9(11)    OBJ       137
    I9(11)    R0        -9
    I9(11)    R2        14
    I9(11)    R3        14
    I9(11)    R4        -1
    I9(11)    R5        15
    I9(11)    R6        9
    I9(11)    R8        12
    I9(11)    R9        8
    I9(11)    R10       12
    I9(11)    R11       13
    I9(11)    R25       1
    I10(11)   OBJ       -77
    I10(11)   R0        164
    I10(11)   R1        -1
    I10(11)   R2        13
    I10(11)   R4        18
    I10(11)   R5        14
    I10(11)   R7        6
    I10(11)   R8        15
    I10(11)   R10       -1
    I10(11)   R11       10
    I10(11)   R12       -1
    I10(11)   R25       1
    I11(9)    OBJ       -65
    I11(9)    R0        -194
    I11(9)    R2        13
    I11(9)    R4        12
    I11(9)    R5        -1
    I11(9)    R7        18
    I11(9)    R8        11
    I11(9)    R11       12
    I11(9)    R12       2
    I11(9)    R25       1
    MARKER    'MARKER'                 'INTEND'
    C12(19)   OBJ       7
    C12(19)   R0        -3
    C12(19)   R1        18
    C12(19)   R2        4
    C12(19)   R3        7
    C12(19)   R4        1
    C12(19)   R5        18
    C12(19)   R6        9
    C12(19)   R7        2
    C12(19)   R8        9
    C12(19)   R10       15
    C12(19)   R11       9
    C12(19)   R12       16
    C12(19)   R14       6
    C12(19)   R15       18
    C12(19)   R16       15
    C12(19)   R19       8
    C12(19)   R20       17
    C12(19)   R22       8
    C12(19)   R23       9
    C13(20)   OBJ       -3
    C13(20)   R0        7
    C13(20)   R1        11
    C13(20)   R2        16
    C13(20)   R3        15
    C13(20)   R4        14
    C13(20)   R5        15
    C13(20)   R6        3
    C13(20)   R7        2
    C13(20)   R8        8
    C13(20)   R9        15
    C13(20)   R10       19
    C13(20)   R11       13
    C13(20)   R13       8
    C13(20)   R14       17
    C13(20)   R15       8
    C13(20)   R16       12
    C13(20)   R20       17
    C13(20)   R21       2
    C13(20)   R22       11
    C13(20)   R24       11
    C14(21)   OBJ       4
    C14(21)   R0        5
    C14(21)   R1        8
    C14(21)   R2        6
    C14(21)   R3        11
    C14(21)   R4        6
    C14(21)   R7        18
    C14(21)   R8        13
    C14(21)   R9        1
    C14(21)   R10       19
    C14(21)   R11       7
    C14(21)   R13       12
    C14(21)   R14       8
    C14(21)   R15       12
    C14(21)   R16       19
    C14(21)   R17       18
    C14(21)   R18       18
    C14(21)   R19       10
    C14(21)   R20       5
    C14(21)   R22       19
    C14(21)   R23       11
    C14(21)   R24       3
    C15(18)   OBJ       5
    C15(18)   R0        -2
    C15(18)   R2        18
    C15(18)   R3        12
    C15(18)   R6        9
    C15(18)   R7        14
    C15(18)   R8        15
    C15(18)   R9        4
    C15(18)   R10       14
    C15(18)   R11       -1
    C15(18)   R12       16
    C15(18)   R14       4
    C15(18)   R15       17
    C15(18)   R16       3
    C15(18)   R18       19
    C15(18)   R19       14
    C15(18)   R20       7
    C15(18)   R23       2
    C15(18)   R24       4
    C16(22)   OBJ       8
    C16(22)   R0        -6
    C16(22)   R1        10
    C16(22)   R3        10
    C16(22)   R4        1
    C16(22)   R5        11
    C16(22)   R6        6
    C16(22)   R7        17
    C16(22)   R8        10
    C16(22)   R10       -1
    C16(22)   R11       2
    C16(22)   R13       -1
    C16(22)   R14       13
    C16(22)   R15       13
    C16(22)   R16       7
    C16(22)   R17       15
    C16(22)   R18       12
    C16(22)   R19       8
    C16(22)   R20       7
    C16(22)   R21       13
    C16(22)   R22       2
    C16(22)   R23       9
    C16(22)   R24       -1
    C17(18)   OBJ       8
    C17(18)   R0        6
    C17(18)   R1        12
    C17(18)   R2        1
    C17(18)   R3        -1
    C17(18)   R5        13
    C17(18)   R6        2
    C17(18)   R7        6
    C17(18)   R8        11
    C17(18)   R9        16
    C17(18)   R11       18
    C17(18)   R12       18
    C17(18)   R15       1
    C17(18)   R17       3
    C17(18)   R18       4
    C17(18)   R19       -1
    C17(18)   R20       10
    C17(18)   R23       9
    C17(18)   R24       8
    C18(21)   OBJ       -5
    C18(21)   R0        6
    C18(21)   R2        15
    C18(21)   R3        -1
    C18(21)   R5        2
    C18(21)   R6        5
    C18(21)   R7        -1
    C18(21)   R8        15
    C18(21)   R10       15
    C18(21)   R11       5
    C18(21)   R12       15
    C18(21)   R13       14
    C18(21)   R14       11
    C18(21)   R15       16
    C18(21)   R16       4
    C18(21)   R18       1
    C18(21)   R19       3
    C18(21)   R20       12
    C18(21)   R21       16
    C18(21)   R22       6
    C18(21)   R23       16
    C18(21)   R24       9
    C19(21)   OBJ       -9
    C19(21)   R0        -5
    C19(21)   R1        5
    C19(21)   R2        19
    C19(21)   R3        1
    C19(21)   R4        16
    C19(21)   R5        2
    C19(21)   R6        7
    C19(21)   R7        15
    C19(21)   R8        -1
    C19(21)   R10       19
    C19(21)   R11       16
    C19(21)   R12       17
    C19(21)   R13       16
    C19(21)   R14       8
    C19(21)   R15       4
    C19(21)   R16       3
    C19(21)   R18       2
    C19(21)   R19       17
    C19(21)   R20       7
    C19(21)   R23       2
    C19(21)   R24       14
    C20(22)   OBJ       6
    C20(22)   R0        -1
    C20(22)   R1        8
    C20(22)   R2        12
    C20(22)   R3        10
    C20(22)   R5        16
    C20(22)   R6        12
    C20(22)   R8        13
    C20(22)   R9        3
    C20(22)   R10       17
    C20(22)   R11       12
    C20(22)   R12       -1
    C20(22)   R13       2
    C20(22)   R14       12
    C20(22)   R15       6
    C20(22)   R16       6
    C20(22)   R17       6
    C20(22)   R18       8
    C20(22)   R19       7
    C20(22)   R20       6
    C20(22)   R22       17
    C20(22)   R23       19
    C20(22)   R24       4
    C21(19)   OBJ       9
    C21(19)   R0        -8
    C21(19)   R1        6
    C21(19)   R3        3
    C21(19)   R4        16
    C21(19)   R5        5
    C21(19)   R6        19
    C21(19)   R7        6
    C21(19)   R8        16
    C21(19)   R9        19
    C21(19)   R10       18
    C21(19)   R11       16
    C21(19)   R12       10
    C21(19)   R13       18
    C21(19)   R16       -1
    C21(19)   R18       17
    C21(19)   R21       16
    C21(19)   R22       19
    C21(19)   R23       15
    C21(19)   R24       -1
    C22(18)   OBJ       9
    C22(18)   R0        8
    C22(18)   R1        7
    C22(18)   R2        1
    C22(18)   R3        -1
    C22(18)   R4        4
    C22(18)   R7        12
    C22(18)   R10       8
    C22(18)   R11       6
    C22(18)   R12       8
    C22(18)   R14       5
    C22(18)   R15       17
    C22(18)   R16       9
    C22(18)   R17       -1
    C22(18)   R18       10
    C22(18)   R20       11
    C22(18)   R21       4
    C22(18)   R22       17
    C22(18)   R24       4
    C23(19)   OBJ       9
    C23(19)   R0        3
    C23(19)   R1        19
    C23(19)   R2        1
    C23(19)   R4        5
    C23(19)   R5        15
    C23(19)   R8        11
    C23(19)   R9        15
    C23(19)   R10       -1
    C23(19)   R11       16
    C23(19)   R13       6
    C23(19)   R16       8
    C23(19)   R17       10
    C23(19)   R18       15
    C23(19)   R19       14
    C23(19)   R20       6
    C23(19)   R21       6
    C23(19)   R22       18
    C23(19)   R23       8
    C23(19)   R24       10
    C24(18)   OBJ       -6
    C24(18)   R0        -5
    C24(18)   R2        14
    C24(18)   R3        -1
    C24(18)   R5        11
    C24(18)   R7        9
    C24(18)   R8        12
    C24(18)   R10       8
    C24(18)   R12       16
    C24(18)   R13       14
    C24(18)   R14       15
    C24(18)   R15       12
    C24(18)   R17       11
    C24(18)   R18       14
    C24(18)   R19       4
    C24(18)   R20       -1
    C24(18)   R21       6
    C24(18)   R22       8
    C24(18)   R23       6
    C25(1)    R1        1
    C26(1)    R2        1
    C27(1)    R3        1
    C28(1)    R4        1
    C29(1)    R5        1
    C30(1)    R6        1
    C31(1)    R7        1
    C32(1)    R8        1
    C33(1)    R9        1
    C34(1)    R10       1
    C35(1)    R11       1
    C36(1)    R12       1
    C37(1)    R13       1
    C38(1)    R14       1
    C39(1)    R15       1
    C40(1)    R16       1
    C41(1)    R17       1
    C42(1)    R18       1
    C43(1)    R19       1
    C44(1)    R20       1
    C45(1)    R21       1
    C46(1)    R22       1
    C47(1)    R23       1
    C48(1)    R24       1
    C49(1)    R25       1
RHS
    RHS1      R0        -0.526315789473685
    RHS1      R1        60
    RHS1      R2        63
    RHS1      R3        91
    RHS1      R4        63
    RHS1      R5        77
    RHS1      R6        69
    RHS1      R7        99
    RHS1      R8        82
    RHS1      R9        61
    RHS1      R10       73
    RHS1      R11       60
    RHS1      R12       88
    RHS1      R13       57
    RHS1      R14       92
    RHS1      R15       54
    RHS1      R16       63
    RHS1      R17       60
    RHS1      R18       82
    RHS1      R19       76
    RHS1      R20       79
    RHS1      R21       84
    RHS1      R22       85
    RHS1      R23       51
    RHS1      R24       60
    RHS1      R25       4
BOUNDS
 UP BND1      I0(13)    1
 UP BND1      I1(13)    1
 UP BND1      I2(13)    1
 UP BND1      I3(14)    1
 UP BND1      I4(12)    1
 UP BND1      I5(12)    1
 UP BND1      I6(13)    1
 UP BND1      I7(12)    1
 UP BND1      I8(11)    1
 UP BND1      I9(11)    1
 UP BND1      I10(11)   1
 UP BND1      I11(9)    1
ENDATA
